gen	cost
1	1412
2	1380
3	1363
4	1337
5	1313
6	1286
7	1278
8	1270
9	1256
10	1256
11	1256
12	1256
13	1255
14	1255
15	1255
16	1255
17	1255
18	1255
19	1255
20	1255
21	1255
22	1255
23	1255
24	1255
25	1255
26	1255
27	1255
28	1255
29	1255
30	1255
31	1255
32	1255
33	1255
34	1255
35	1255
36	1255
37	1255
38	1255
39	1255
40	1255
41	1255
42	1255
43	1255
44	1255
45	1255
46	1255
47	1255
48	1255
49	1255
50	1255

